#LVEL = .TRUE.
ALGO   = V #TEST
PREC = A
#KINTER = 1 
ISMEAR = -5
NEDOS = 100000
EMIN = 5.5
EMAX = 7.5
ENCUT = 350
LOPTICS = .TRUE.
#KPAR = 10
DIPOL = 1 2 2