# Compound: Co7Sb24.                                
   1.00000000000000     
     9.0164589999999993    0.0000000000000000    0.0000000000000000
     0.0000000000000000    9.0164589999999993    0.0000000000000000
     0.0000000000000000    0.0000000000000000    9.0164589999999993
   Co   Sb 
     8    24
Direct
  0.2499994731856461  0.2499994731856461  0.2499994731856461
  0.7499995286397905  0.7499995286397905  0.7499995286397905
  0.7499995286397905  0.7499995286397905  0.2499994731856461
  0.2499994731856461  0.2499994731856461  0.7499995286397905
  0.7499995286397905  0.2499994731856461  0.7499995286397905
  0.2499994731856461  0.7499995286397905  0.2499994731856461
  0.2499994731856461  0.7499995286397905  0.7499995286397905
  0.7499995286397905  0.2499994731856461  0.2499994731856461
  0.0000000000000000  0.3351005089692052  0.1580498508339048
  0.0000000000000000  0.6648996019390765  0.8419502600743840
  0.0000000000000000  0.6648996019390765  0.1580498508339048
  0.0000000000000000  0.3351005089692052  0.8419502600743840
  0.1580498508339048  0.0000000000000000  0.3351005089692052
  0.8419502600743840  0.0000000000000000  0.6648996019390765
  0.1580498508339048  0.0000000000000000  0.6648996019390765
  0.8419502600743840  0.0000000000000000  0.3351005089692052
  0.3351005089692052  0.1580498508339048  0.0000000000000000
  0.6648996019390765  0.8419502600743840  0.0000000000000000
  0.6648996019390765  0.1580498508339048  0.0000000000000000
  0.3351005089692052  0.8419502600743840  0.0000000000000000
  0.5000000554541444  0.8351005644233496  0.6580499062880421
  0.5000000554541444  0.1648995464849321  0.3419502046202396
  0.5000000554541444  0.1648995464849321  0.6580499062880421
  0.5000000554541444  0.8351005644233496  0.3419502046202396
  0.6580499062880421  0.5000000554541444  0.8351005644233496
  0.3419502046202396  0.5000000554541444  0.1648995464849321
  0.6580499062880421  0.5000000554541444  0.1648995464849321
  0.3419502046202396  0.5000000554541444  0.8351005644233496
  0.8351005644233496  0.6580499062880421  0.5000000554541444
  0.1648995464849321  0.3419502046202396  0.5000000554541444
  0.1648995464849321  0.6580499062880421  0.5000000554541444
  0.8351005644233496  0.3419502046202396  0.5000000554541444
 
  0.00000000E+00  0.00000000E+00  0.00000000E+00
  0.00000000E+00  0.00000000E+00  0.00000000E+00
  0.00000000E+00  0.00000000E+00  0.00000000E+00
  0.00000000E+00  0.00000000E+00  0.00000000E+00
  0.00000000E+00  0.00000000E+00  0.00000000E+00
  0.00000000E+00  0.00000000E+00  0.00000000E+00
  0.00000000E+00  0.00000000E+00  0.00000000E+00
  0.00000000E+00  0.00000000E+00  0.00000000E+00
  0.00000000E+00  0.00000000E+00  0.00000000E+00
  0.00000000E+00  0.00000000E+00  0.00000000E+00
  0.00000000E+00  0.00000000E+00  0.00000000E+00
  0.00000000E+00  0.00000000E+00  0.00000000E+00
  0.00000000E+00  0.00000000E+00  0.00000000E+00
  0.00000000E+00  0.00000000E+00  0.00000000E+00
  0.00000000E+00  0.00000000E+00  0.00000000E+00
  0.00000000E+00  0.00000000E+00  0.00000000E+00
  0.00000000E+00  0.00000000E+00  0.00000000E+00
  0.00000000E+00  0.00000000E+00  0.00000000E+00
  0.00000000E+00  0.00000000E+00  0.00000000E+00
  0.00000000E+00  0.00000000E+00  0.00000000E+00
  0.00000000E+00  0.00000000E+00  0.00000000E+00
  0.00000000E+00  0.00000000E+00  0.00000000E+00
  0.00000000E+00  0.00000000E+00  0.00000000E+00
  0.00000000E+00  0.00000000E+00  0.00000000E+00
  0.00000000E+00  0.00000000E+00  0.00000000E+00
  0.00000000E+00  0.00000000E+00  0.00000000E+00
  0.00000000E+00  0.00000000E+00  0.00000000E+00
  0.00000000E+00  0.00000000E+00  0.00000000E+00
  0.00000000E+00  0.00000000E+00  0.00000000E+00
  0.00000000E+00  0.00000000E+00  0.00000000E+00
  0.00000000E+00  0.00000000E+00  0.00000000E+00
  0.00000000E+00  0.00000000E+00  0.00000000E+00
